
### INSIEMI ###
set P := 1 2 3 4 5 6;

### PARAMETRI ###
param d:
	 	1	2                            	3                            	4                            	5                            	6                            	:=
	1	.	5.787918451395112736777905056	9.027735042633894226090545586	10.5                         	8.336666000266533407955228142	9.124143795447329533499526368	  
	2	.	.                            	9.433981132056603811320660378	10.30776406404415137455352464	7.968688725254613683315580373	10.59481005020854538585882948	  
	3	.	.                            	.                            	5.315072906367324703999560957	3.674234614174767147295926112	11.41271221051332740562186203	  
	4	.	.                            	.                            	.                            	2.692582403567252015625355246	8.124038404635960360459883568	  
	5	.	.                            	.                            	.                            	.                            	8.381527307120105064222847778	  
	6	.	.                            	.                            	.                            	.                            	.                            	; 
param K := 3;